5 5
6 4 3 19 4 4 1 3 2 18 3 1 20 2 13 5 3 1 2 15 4 3 17 5 18 2 7 4 19 4 4 13 3 2 2 13 5 15 2 3 6 1 13
5 2 5 5 4 2 4 3 16 2 20 4 19 5 13 2 4 11 5 14 4 4 17 2 18 3 14 5 12 3 5 15 2 2 4 20
6 5 3 2 1 14 4 20 2 15 5 3 3 2 14 3 4 1 9 1 1 7 4 2 4 4 5 5 18 1 9 4 1 7 3 19 5 18 4 9 5 2 19 5 16 4 15 1 5 3 18
7 3 5 2 3 10 2 20 5 2 18 4 20 3 13 5 12 1 13 3 3 3 4 2 1 3 3 5 8 4 10 2 13 3 2 6 3 5 5 14 5 4 5 5 3 1 6 3 3 2 18 2 3 17 4 18
5 2 4 13 5 7 2 2 16 4 4 2 2 2 4 19 4 1 10 3 9 4 3 5 8 5 2 8 1 17 3 6 4 14 5 11